LAMMPS (2 Aug 2023 - Update 2)
# 3d Lennard-Jones gas

units           lj
atom_style      atomic
read_restart    ./DATA/restart.500000
Reading restart file ...
  restart file = 2 Aug 2023, LAMMPS = 2 Aug 2023
  restoring atom style atomic from restart
  orthogonal box = (0 0 0) to (40 40 40)
  1 by 1 by 1 MPI processor grid
  restoring pair style lj/cut from restart
  512 atoms
  read_restart CPU = 0.000 seconds
include         setup.in
variable        seed world 87287
variable        out_freq equal 500

variable	    press equal 1.0
variable	    pdamp equal 1000.0

variable	    temp1 equal 1.0
variable	    temp2 equal 0.5
variable	    tdamp equal 100.0

variable        epsilon equal 1.0
variable        sigma equal 0.89
variable        rcut equal 6.0

timestep        0.01

thermo          1000
thermo_style    custom step temp pe press

neighbor        0.3 bin
neigh_modify    delay 0 every 20 check no

pair_style      lj/cut ${rcut}
pair_style      lj/cut 6
pair_coeff      1 1 ${epsilon} ${sigma} ${rcut}
pair_coeff      1 1 1 ${sigma} ${rcut}
pair_coeff      1 1 1 0.89 ${rcut}
pair_coeff      1 1 1 0.89 6

# Equilibriate

fix             1 all nve
fix             2 all temp/csvr ${temp2} ${temp2} ${tdamp} ${seed}
fix             2 all temp/csvr 0.5 ${temp2} ${tdamp} ${seed}
fix             2 all temp/csvr 0.5 0.5 ${tdamp} ${seed}
fix             2 all temp/csvr 0.5 0.5 100 ${seed}
fix             2 all temp/csvr 0.5 0.5 100 87287
Resetting global fix info from restart file:
  fix style: temp/csvr, fix ID: 2
fix             3 all plumed plumedfile plumed_restart.dat outfile plumed.log

dump            myDump all atom 10000 ./DATA/equilibriate2

reset_timestep  500000

run             500000
Generated 0 of 0 mixed pair_coeff terms from geometric mixing rule
All restart file global fix info was re-assigned
Neighbor list info ...
  update: every = 20 steps, delay = 0 steps, check = no
  max neighbors/atom: 2000, page size: 100000
  master list distance cutoff = 6.3
  ghost atom cutoff = 6.3
  binsize = 3.15, bins = 13 13 13
  1 neighbor lists, perpetual/occasional/extra = 1 0 0
  (1) pair lj/cut, perpetual
      attributes: half, newton on
      pair build: half/bin/atomonly/newton
      stencil: half/bin/3d
      bin: standard
Per MPI rank memory allocation (min/avg/max) = 2.597 | 2.597 | 2.597 Mbytes
   Step          Temp          PotEng         Press     
    500000   0.53321262    -0.90680704     0.0021702445 
    501000   0.50227899    -0.86667753     0.00137601   
    502000   0.52887063    -0.91609765     0.0030968787 
    503000   0.53270914    -0.91264076     0.0027355542 
    504000   0.52730662    -0.89641668     0.002806108  
    505000   0.51827095    -0.8767024      0.0025797661 
    506000   0.53526238    -0.90504846     0.0038261222 
    507000   0.54980037    -0.93122035     0.0018217772 
    508000   0.56039627    -0.97579638     0.0037986035 
    509000   0.5412756     -0.95137415     0.0019461871 
    510000   0.55024753    -0.96884233     0.0024057268 
    511000   0.54694448    -0.98011691     0.0015453121 
    512000   0.54551727    -0.96844946     0.0033828949 
    513000   0.54866735    -0.98822514     0.0029733415 
    514000   0.54266859    -0.97686639     0.0023670277 
    515000   0.56236078    -0.99882639     0.003565567  
    516000   0.53561608    -0.97056778     0.0018247293 
    517000   0.55947563    -1.0180476      0.0033995412 
    518000   0.54825661    -0.99620609     0.0015472898 
    519000   0.53620255    -0.99234043     0.0024296952 
    520000   0.54364944    -1.0006137      0.0038533486 
    521000   0.58315543    -1.040982       0.0024850773 
    522000   0.55994792    -1.0260654      0.0037690057 
    523000   0.55243011    -1.0095407      0.0026318118 
    524000   0.54495096    -1.0030715      0.0033406725 
    525000   0.55901956    -1.026022       0.0023204994 
    526000   0.56454334    -1.0474762      0.0017670369 
    527000   0.58193745    -1.0790824      0.0042925292 
    528000   0.56689568    -1.0650862      0.0040785957 
    529000   0.5489508     -1.0396196      0.0024602821 
    530000   0.54686177    -1.031994       0.002649578  
    531000   0.54849751    -1.0478466      0.0031410008 
    532000   0.52873876    -1.0286886      0.0026382631 
    533000   0.55618986    -1.0752404      0.0030541681 
    534000   0.52026215    -1.0460773      0.0012216359 
    535000   0.51411714    -1.043709       0.0016191386 
    536000   0.5377334     -1.0772977      0.0026123321 
    537000   0.54478756    -1.1012416      0.003069489  
    538000   0.52886549    -1.0909404      0.0021829814 
    539000   0.50778596    -1.0741875      0.0022527424 
    540000   0.53870992    -1.1394177      0.0040061868 
    541000   0.51847736    -1.1238056      0.0043774026 
    542000   0.50455842    -1.1100173      0.0028637131 
    543000   0.50951938    -1.1127945      0.0027574922 
    544000   0.50258496    -1.1047813      0.0030192564 
    545000   0.5164997     -1.1196839      0.0029133548 
    546000   0.50823468    -1.1092011      0.001418793  
    547000   0.52295621    -1.1429371      0.0017353401 
    548000   0.54939783    -1.1674869      0.0024868219 
    549000   0.50835234    -1.1161182      0.002169685  
    550000   0.5426831     -1.1657172      0.0024274818 
    551000   0.51261699    -1.1164908      0.0023683538 
    552000   0.5445276     -1.1576259      0.0031597795 
    553000   0.52377241    -1.1387255      0.0015589456 
    554000   0.49562831    -1.1128234      0.0024846053 
    555000   0.53735497    -1.1607297      0.0030078581 
    556000   0.55757901    -1.1691012      0.0031351592 
    557000   0.55029654    -1.1704316      0.0020826933 
    558000   0.52740738    -1.1508661      0.0016581487 
    559000   0.50963511    -1.1231303      0.0016163551 
    560000   0.53296352    -1.1703358      0.0021712532 
    561000   0.50442239    -1.1477964      0.0015481346 
    562000   0.55237687    -1.2002076      0.0029563247 
    563000   0.51417379    -1.1515138      0.0023573829 
    564000   0.51225634    -1.1439393      0.0014965376 
    565000   0.53199896    -1.1700034      0.0030210251 
    566000   0.52526031    -1.1626808      0.0049333813 
    567000   0.53203096    -1.1830833      0.0018053796 
    568000   0.52676095    -1.1697258      0.0019844734 
    569000   0.52667705    -1.1834032      0.0022360924 
    570000   0.53994843    -1.2015597      0.0026545984 
    571000   0.53267811    -1.1969466      0.0027875036 
    572000   0.54142002    -1.2219168      0.00239235   
    573000   0.54118197    -1.2240962      0.00047237215
    574000   0.52821973    -1.2143429      0.0026865861 
    575000   0.49888536    -1.1992608      0.0022205428 
    576000   0.49267552    -1.190321       0.0011286138 
    577000   0.51421222    -1.2296635      0.00320006   
    578000   0.52553409    -1.2293764      0.0032125665 
    579000   0.50287456    -1.2181428      0.002351363  
    580000   0.53572292    -1.2775298      0.0019118063 
    581000   0.4965804     -1.2298028      0.0031657767 
    582000   0.52549896    -1.2637012      0.0029427786 
    583000   0.50921614    -1.245342       0.0023732715 
    584000   0.50687067    -1.2657247      0.0022703472 
    585000   0.52580733    -1.2859359      0.0019908607 
    586000   0.52294093    -1.2999956      0.0014116944 
    587000   0.52125247    -1.3107869      0.0013814587 
    588000   0.50461725    -1.3008092      0.0016626914 
    589000   0.49903813    -1.2983925      0.0026822616 
    590000   0.53116758    -1.3520742      0.0021310443 
    591000   0.52807086    -1.3737343      0.0016098731 
    592000   0.53342139    -1.3720581      0.0036603629 
    593000   0.51759676    -1.3560845      0.002772397  
    594000   0.52406674    -1.3706983      0.0019850557 
    595000   0.51952597    -1.3695894      0.0019159661 
    596000   0.52870345    -1.3904653      0.0016617357 
    597000   0.54171346    -1.4004547      0.0039938331 
    598000   0.53075892    -1.3617839      0.0033592487 
    599000   0.55393465    -1.3966242      0.0030444521 
    600000   0.53297073    -1.3857303      0.0024718584 
    601000   0.57130428    -1.4573061      0.0016080109 
    602000   0.53972782    -1.4018083      0.0037501242 
    603000   0.54610493    -1.4152009      0.00062971008
    604000   0.52769481    -1.3873219      0.00084254   
    605000   0.55147817    -1.4131971      0.0024556633 
    606000   0.55155633    -1.4010089      0.0029398291 
    607000   0.5274236     -1.3818163      0.0020426215 
    608000   0.54374645    -1.4059517      0.0038845233 
    609000   0.52218001    -1.4031882      0.0017907608 
    610000   0.53995188    -1.4598817      0.0046022964 
    611000   0.51998227    -1.4293444      0.0011262702 
    612000   0.54746065    -1.4594888      0.00429371   
    613000   0.55665643    -1.4601407      0.0028110857 
    614000   0.52631527    -1.4214797      0.00048703777
    615000   0.55964927    -1.4523501      0.0026391874 
    616000   0.52491729    -1.4126045      0.0014143059 
    617000   0.53717959    -1.4240715      0.0020122364 
    618000   0.5555747     -1.4603032      0.0021832133 
    619000   0.53983104    -1.4373526      0.0028267882 
    620000   0.56974497    -1.5037242      0.0019708884 
    621000   0.55097556    -1.4874725      0.0017475718 
    622000   0.55079503    -1.484734       0.0022032815 
    623000   0.53371735    -1.4712082      0.002198144  
    624000   0.53505037    -1.4699668      0.0020382518 
    625000   0.55944664    -1.5141263      0.0016594598 
    626000   0.5252148     -1.492645       0.0014831107 
    627000   0.53670349    -1.5047118      0.003777718  
    628000   0.51339264    -1.4813979      0.0010893628 
    629000   0.5281845     -1.5006839      0.0033682446 
    630000   0.56893938    -1.5670043      0.0013943145 
    631000   0.50057298    -1.474959       0.0028511696 
    632000   0.52867749    -1.5154489      0.0018250702 
    633000   0.49637346    -1.4832004      0.0027641204 
    634000   0.52588217    -1.5169685      0.0025200408 
    635000   0.52609156    -1.527214       0.0015193758 
    636000   0.5309699     -1.5325715      0.00057922483
    637000   0.52993463    -1.5371875      0.00084199146
    638000   0.54260756    -1.5619858      0.0016096872 
    639000   0.51398008    -1.508347       0.00065951179
    640000   0.55962307    -1.588389       0.0023995023 
    641000   0.55436085    -1.56695        0.0030148213 
    642000   0.54017017    -1.5615222      0.0013144292 
    643000   0.55391238    -1.5925458      0.0024280624 
    644000   0.58748039    -1.6355756      0.0029084871 
    645000   0.56042482    -1.6268672      0.0027262211 
    646000   0.55460152    -1.6287399      0.0021707425 
    647000   0.56484483    -1.6565299      0.00057279619
    648000   0.55175411    -1.6369594      0.0015996239 
    649000   0.55486107    -1.6454775      0.002187926  
    650000   0.57639884    -1.6770316      0.0026289798 
    651000   0.5625433     -1.664356       0.0027780718 
    652000   0.54224351    -1.6507261      0.0028751259 
    653000   0.53302408    -1.654276       0.0021411983 
    654000   0.56662509    -1.7072842      0.00088116681
    655000   0.58993193    -1.7331957      0.0032417196 
    656000   0.5784659     -1.7117158      0.0033582369 
    657000   0.55686593    -1.6873149      0.0023444041 
    658000   0.58730723    -1.7342506      0.0010431166 
    659000   0.57171689    -1.7308013      0.0014516963 
    660000   0.53969907    -1.6869314      0.0015370304 
    661000   0.58650357    -1.7591626      0.0017389184 
    662000   0.58021848    -1.7628672      0.003230257  
    663000   0.5251555     -1.6733082      0.0029571781 
    664000   0.55172413    -1.7200789      0.0011850689 
    665000   0.55453874    -1.731901       0.0012146932 
    666000   0.54521003    -1.7173724      0.0021619333 
    667000   0.56735041    -1.7478841      0.0029579064 
    668000   0.56332971    -1.7710875      0.0021364537 
    669000   0.5626194     -1.7775242      0.0021834012 
    670000   0.5490702     -1.7560774      0.0018669307 
    671000   0.54870277    -1.7406589      0.0030459016 
    672000   0.53891935    -1.7360594      0.002895202  
    673000   0.57537202    -1.7907624      0.000676671  
    674000   0.56256049    -1.7645446      0.0017762952 
    675000   0.58004611    -1.8000539      0.0043735976 
    676000   0.5579666     -1.7705256      0.0042768887 
    677000   0.55620384    -1.7755298      0.0020306365 
    678000   0.53635304    -1.7678504      0.0011398098 
    679000   0.54045851    -1.7846704      0.0021169772 
    680000   0.53784891    -1.7879379      0.0026659408 
    681000   0.57265789    -1.8492368      0.0015329047 
    682000   0.55348818    -1.8136689      0.0013305611 
    683000   0.53645176    -1.808092       0.0012965271 
    684000   0.54785831    -1.8355778      0.0023479305 
    685000   0.56634767    -1.8701598      0.0015967187 
    686000   0.54634496    -1.8579436      0.0028883929 
    687000   0.5522623     -1.8868628      0.002464487  
    688000   0.51397336    -1.8356691      0.0030141064 
    689000   0.53733341    -1.8833388      0.002499827  
    690000   0.5430107     -1.8864253      0.002683201  
    691000   0.57272843    -1.9281986      0.004100135  
    692000   0.55826475    -1.9008298      8.9918264e-05
    693000   0.58257311    -1.9544464      0.0015929042 
    694000   0.53307611    -1.903404       0.0019285117 
    695000   0.53362327    -1.8998726      0.0034355878 
    696000   0.54118602    -1.9276271      0.00069188168
    697000   0.52226816    -1.9003595      0.0017498529 
    698000   0.53693355    -1.9271909      0.002395112  
    699000   0.54801689    -1.9766749      0.0026078138 
    700000   0.53611939    -1.9648568      0.0027711279 
    701000   0.54270218    -1.9656857      0.0012356711 
    702000   0.56465843    -1.9921149      0.0020837787 
    703000   0.54035946    -1.9792963      0.0039645315 
    704000   0.53665303    -1.9813573      0.0035513073 
    705000   0.5337739     -1.9886558      0.0025237035 
    706000   0.53730585    -1.9959598      0.0023183582 
    707000   0.54470018    -2.0150684      0.0029010088 
    708000   0.51785914    -1.9964179      0.0019237517 
    709000   0.51291135    -1.9940068      0.0017285209 
    710000   0.55469915    -2.0535434      0.0017124048 
    711000   0.54869736    -2.0396799      0.0022941002 
    712000   0.55482239    -2.0638335      0.0018680513 
    713000   0.5408236     -2.0530328     -0.00051384258
    714000   0.54322567    -2.0584585      0.00079889624
    715000   0.51541403    -2.0194832      0.0032177775 
    716000   0.52922968    -2.0389829      0.0016834034 
    717000   0.51270322    -2.0255217      0.0022621357 
    718000   0.53044765    -2.0871301      0.002481876  
    719000   0.50296914    -2.058247       0.0016838058 
    720000   0.51637461    -2.0608875      0.0014047264 
    721000   0.50478926    -2.0356143      0.00081455912
    722000   0.52121994    -2.0433204      0.00061939185
    723000   0.51935273    -2.0493519      0.002243614  
    724000   0.52452567    -2.0808633      0.001940556  
    725000   0.52005018    -2.0923439      0.0027113957 
    726000   0.52492251    -2.1016758      0.0022350394 
    727000   0.56257856    -2.1519166      0.0041711494 
    728000   0.53055771    -2.1061358      0.0028568338 
    729000   0.53892152    -2.1335039      0.0013129322 
    730000   0.5369083     -2.1462099      0.00046704289
    731000   0.53426288    -2.1278329      0.0017687245 
    732000   0.56732752    -2.1741886      0.00046159035
    733000   0.58503732    -2.2227779      0.00334768   
    734000   0.54982649    -2.1889378      0.00042491911
    735000   0.55026876    -2.2154999      0.0012255696 
    736000   0.53777825    -2.2111423      0.0023755094 
    737000   0.5475736     -2.2443501      0.0030340575 
    738000   0.52865599    -2.2199495      0.0010455285 
    739000   0.55018986    -2.2460292      0.00055648703
    740000   0.54545969    -2.2494167      0.0010379207 
    741000   0.51820799    -2.2103993     -0.00021736215
    742000   0.51775673    -2.2343954      0.00038040183
    743000   0.50728945    -2.2164522      0.0018518045 
    744000   0.53366419    -2.2623455      0.00044270098
    745000   0.55592449    -2.3100989      0.001058816  
    746000   0.52791545    -2.2806581     -0.00033315472
    747000   0.52544201    -2.2908681      0.0013894437 
    748000   0.48818161    -2.2588542      0.0017114748 
    749000   0.52679604    -2.3338863      0.0027456303 
    750000   0.48009614    -2.2734923      0.0016649614 
    751000   0.5206698     -2.350839       0.0020331722 
    752000   0.50049764    -2.326326       0.0013198058 
    753000   0.51435298    -2.3411172      0.0018427059 
    754000   0.52022947    -2.35081        0.00024035778
    755000   0.5213954     -2.3613323      0.0016395659 
    756000   0.51451689    -2.3595432      0.0018545694 
    757000   0.51897074    -2.3777814      0.002043129  
    758000   0.53317128    -2.4104813      0.0011450609 
    759000   0.50160767    -2.3595966      0.0013543055 
    760000   0.50205311    -2.366633       0.0017611943 
    761000   0.52712573    -2.404794       0.0027141333 
    762000   0.52314911    -2.4169265      0.0011450524 
    763000   0.54258161    -2.445946       0.0010779103 
    764000   0.51761292    -2.4081807      0.00093158179
    765000   0.52257443    -2.4174948      0.0012468526 
    766000   0.56052763    -2.4884393      0.0024233465 
    767000   0.53136129    -2.4526462      0.00076708109
    768000   0.5339754     -2.4760547      0.0026375599 
    769000   0.52171925    -2.4616569      0.00075845818
    770000   0.51290726    -2.4623557     -0.0005361803 
    771000   0.53990158    -2.5072304      0.002159057  
    772000   0.56083188    -2.526407       0.0006393546 
    773000   0.52870837    -2.4946278      0.0024939423 
    774000   0.52892514    -2.492367       0.0012663116 
    775000   0.54885903    -2.4922254     -0.00042498088
    776000   0.54162269    -2.4948067      0.0014611136 
    777000   0.51824427    -2.4493221      0.0016899386 
    778000   0.53846473    -2.4721833      0.00037843876
    779000   0.53200829    -2.4865281      0.00013863534
    780000   0.53336849    -2.4974206      0.00056582247
    781000   0.5468063     -2.5419325      0.0012601309 
    782000   0.53193183    -2.5259556      0.00048853525
    783000   0.53004298    -2.5225202      0.0019164448 
    784000   0.55014662    -2.5377818      2.7074138e-05
    785000   0.51393476    -2.493635      -0.00017417669
    786000   0.53183915    -2.5303552      0.003482049  
    787000   0.51901498    -2.5269545      0.0021482769 
    788000   0.5189972     -2.5326706      0.0011911761 
    789000   0.51990402    -2.5476077      0.00091263758
    790000   0.55601146    -2.6044195      0.0010622215 
    791000   0.53527738    -2.5740001      0.0028305589 
    792000   0.52943567    -2.6074083      0.0010835771 
    793000   0.51159435    -2.6037106      0.00088077076
    794000   0.52834513    -2.6520473      0.0012033696 
    795000   0.52409742    -2.6313627      0.0021149815 
    796000   0.52507578    -2.6188719      0.0025106428 
    797000   0.54562576    -2.6608654      0.0031802565 
    798000   0.51247024    -2.6118054      0.001140004  
    799000   0.54859201    -2.6831054     -0.00072124796
    800000   0.52243315    -2.6465736      0.0024971776 
    801000   0.49416902    -2.6183757      0.0013312294 
    802000   0.52027099    -2.6360178      0.0002437286 
    803000   0.52240487    -2.6491275      0.0030285487 
    804000   0.55364345    -2.6924595      0.00011138008
    805000   0.50938389    -2.6215107      0.00088478215
    806000   0.52469025    -2.6547575     -2.8987257e-05
    807000   0.5200804     -2.6783476     -0.0011668012 
    808000   0.52894817    -2.6783782      0.0028924521 
    809000   0.51050582    -2.6800257      0.0008793726 
    810000   0.54475417    -2.7141922      0.0026474234 
    811000   0.5162558     -2.6801205      0.0010126035 
    812000   0.53805133    -2.7094869     -0.0012604784 
    813000   0.52644943    -2.703375      -0.00079287973
    814000   0.52566767    -2.7007273      0.002112983  
    815000   0.55169316    -2.7376716      0.0015302812 
    816000   0.53061541    -2.7128998      0.0019889169 
    817000   0.557949      -2.7527966      0.0021553396 
    818000   0.53557675    -2.7127535      0.0016889401 
    819000   0.56157677    -2.7567977     -0.00012412146
    820000   0.55211194    -2.7442434      0.0014896673 
    821000   0.56195313    -2.7725972      0.0011427135 
    822000   0.53220536    -2.7414779      0.0025465705 
    823000   0.52214333    -2.7454321      0.0012779359 
    824000   0.52450113    -2.748044       0.002806992  
    825000   0.51251495    -2.7302996      0.00076203743
    826000   0.52653065    -2.7467692      0.0012386132 
    827000   0.50231585    -2.728661      -2.7174623e-05
    828000   0.52983584    -2.7815966      0.0019139728 
    829000   0.547354      -2.8228055      0.00094300418
    830000   0.52422731    -2.7876834      0.0017826399 
    831000   0.528294      -2.8052842      0.00046890893
    832000   0.53581297    -2.8133021      0.0014461591 
    833000   0.52304155    -2.8184053     -0.00030542211
    834000   0.51485223    -2.8186102      0.0015200018 
    835000   0.53323189    -2.8404971     -0.00014332288
    836000   0.52815396    -2.8368571     -5.9445043e-05
    837000   0.54322971    -2.8634874      7.1823975e-05
    838000   0.566009      -2.8944572      0.0005427957 
    839000   0.58244255    -2.9198942      0.001661463  
    840000   0.53903891    -2.8846765      0.0030499677 
    841000   0.54851583    -2.9070745      0.00093481569
    842000   0.53860484    -2.8926104      0.0036126566 
    843000   0.53836174    -2.8912297      0.001841519  
    844000   0.52699575    -2.886368       0.00063502301
    845000   0.54388561    -2.9029289      0.0018603    
    846000   0.55122965    -2.9220554      0.0021081184 
    847000   0.5444358     -2.9373221      0.00066828487
    848000   0.57775341    -3.0082014     -0.0024198226 
    849000   0.58807171    -3.0128483     -0.0004506562 
    850000   0.52014095    -2.9069771      0.0011282491 
    851000   0.54137905    -2.9625189     -3.9500167e-05
    852000   0.55622656    -2.9793083      8.7556765e-05
    853000   0.55666162    -2.9961538      0.0005009548 
    854000   0.55087385    -2.9938564      0.0021031198 
    855000   0.56975862    -3.0363145      0.0020464115 
    856000   0.55457811    -2.9942643      0.0015623373 
    857000   0.54587154    -2.976788       0.0013112475 
    858000   0.56646266    -3.0186898      0.00057024933
    859000   0.56917743    -3.0261985      0.00088314601
    860000   0.56038364    -3.0197095      0.0027391614 
    861000   0.55473436    -3.0347164      0.0016389288 
    862000   0.5646114     -3.0641962      0.0023210133 
    863000   0.56644752    -3.0621877      0.0025517395 
    864000   0.56096829    -3.059435       0.0016780335 
    865000   0.54199505    -3.0648427      0.0011979665 
    866000   0.55510577    -3.0898309      0.0015927504 
    867000   0.56272642    -3.124643      -0.0012131378 
    868000   0.57633401    -3.1528037      0.0010145638 
    869000   0.54892631    -3.1231608      0.00055520925
    870000   0.54342854    -3.1178819      0.0039565088 
    871000   0.56023603    -3.1438797      0.0014556216 
    872000   0.53097489    -3.1025494     -0.0014272679 
    873000   0.56861038    -3.1638861      0.00060217484
    874000   0.53379771    -3.1323725     -0.0010864341 
    875000   0.55013397    -3.1470712     -0.00054462924
    876000   0.54114815    -3.128816      -0.00076964771
    877000   0.56871855    -3.1709371      0.0016301439 
    878000   0.573365      -3.1784312      0.00015899177
    879000   0.56763058    -3.1689681      0.00063397321
    880000   0.5867838     -3.2153271     -0.00025966022
    881000   0.55523276    -3.1829291      0.0017739346 
    882000   0.53713988    -3.1646614      0.0019783449 
    883000   0.57473358    -3.1975405      0.0017433309 
    884000   0.51942711    -3.1170904      0.003090885  
    885000   0.53610619    -3.1450735      0.00077098886
    886000   0.55249401    -3.1744061     -0.00062925608
    887000   0.53405874    -3.1712514      0.00066374952
    888000   0.54977635    -3.2180689      0.0025486161 
    889000   0.55318207    -3.2230824      0.0018247724 
    890000   0.5498243     -3.2368725     -0.00063882823
    891000   0.52243959    -3.2135472     -0.0011601725 
    892000   0.5484268     -3.2432386      0.001106316  
    893000   0.51369285    -3.1872666      0.00054612502
    894000   0.52597896    -3.2347743      0.0010640287 
    895000   0.52684728    -3.2319411      0.00016450275
    896000   0.53981476    -3.2498789      0.003634443  
    897000   0.55485988    -3.2708828      0.0020576265 
    898000   0.54428397    -3.2681449      0.0026814706 
    899000   0.56622387    -3.3100724      0.0034825376 
    900000   0.54910381    -3.2941803      0.0040177474 
    901000   0.52290519    -3.2344808      0.0014360012 
    902000   0.57205853    -3.3084467     -0.0008513494 
    903000   0.56353465    -3.2989067     -0.00088770401
    904000   0.54396897    -3.2657501     -3.4316584e-05
    905000   0.55835562    -3.2961823      9.7754124e-05
    906000   0.56828864    -3.2879995      0.0037504106 
    907000   0.57813877    -3.2983784      0.001420828  
    908000   0.53277196    -3.2601776      0.00085588444
    909000   0.5411631     -3.2863773      0.00069984111
    910000   0.54036862    -3.2782222      0.0012408362 
    911000   0.56286238    -3.3080755      0.0022619544 
    912000   0.56740476    -3.3497901      0.002651968  
    913000   0.56680029    -3.3436191      0.0012637493 
    914000   0.55096736    -3.3130629      0.0031779464 
    915000   0.54577062    -3.303636      -0.0001927587 
    916000   0.59942967    -3.4066838      0.001404079  
    917000   0.5420259     -3.3428626     -0.0009196783 
    918000   0.56652658    -3.3875491      0.00041317748
    919000   0.58313325    -3.4078585      0.00019256689
    920000   0.55786388    -3.3833492      0.0010881261 
    921000   0.57562648    -3.4139593      0.00052917844
    922000   0.56809052    -3.4076878      0.0024844091 
    923000   0.56287315    -3.4179455      0.005054143  
    924000   0.58324087    -3.450119       0.002839693  
    925000   0.53653243    -3.4080828      0.00087285813
    926000   0.5506053     -3.4387201      0.0010801778 
    927000   0.57918214    -3.4979489      0.0020930228 
    928000   0.55243054    -3.4574871      0.0020746776 
    929000   0.53930036    -3.4497811      0.00056019791
    930000   0.55719552    -3.498127      -0.0016171254 
    931000   0.56214223    -3.5139397      0.00039203481
    932000   0.52362659    -3.4634398      0.0012399179 
    933000   0.51989884    -3.4677506     -0.0006195147 
    934000   0.53147366    -3.4759345      0.0034561129 
    935000   0.59571349    -3.6065201      0.0022548379 
    936000   0.538376      -3.5188291     -0.00099301336
    937000   0.53366302    -3.4992779      0.0013153722 
    938000   0.58540516    -3.5691539     -0.0010536194 
    939000   0.57915338    -3.566088       0.001093401  
    940000   0.54455569    -3.5242965     -0.0013218473 
    941000   0.56513423    -3.5755155      0.0014201308 
    942000   0.57733988    -3.596063       0.00033268511
    943000   0.56889258    -3.5834804     -2.071088e-07 
    944000   0.54340127    -3.5476323     -0.0016587422 
    945000   0.57077096    -3.6006886      0.000450461  
    946000   0.58175622    -3.593266       0.0022040957 
    947000   0.55510318    -3.5664507      0.0016954373 
    948000   0.5714496     -3.5894671      0.003090643  
    949000   0.60106597    -3.6407778      0.00081631185
    950000   0.55973706    -3.5940602      0.00069098327
    951000   0.56421415    -3.5943234     -0.00098839447
    952000   0.58239156    -3.6288481     -0.00039216065
    953000   0.57644949    -3.6520927      0.0031612049 
    954000   0.59278513    -3.6919098      0.001809924  
    955000   0.54975997    -3.6460362     -0.00047311898
    956000   0.54939887    -3.6583826      0.00042714164
    957000   0.57124989    -3.6996293      0.0045440115 
    958000   0.57144559    -3.718031       0.0017958735 
    959000   0.55849213    -3.7155543      0.0013869412 
    960000   0.57440752    -3.7479064     -0.00032478056
    961000   0.55908226    -3.7467398      0.0016265954 
    962000   0.53131561    -3.6970418     -0.0013155089 
    963000   0.57445898    -3.7512481      0.00095833697
    964000   0.55808923    -3.7366224     -0.00026007148
    965000   0.56199314    -3.7455188     -0.0011820446 
    966000   0.57830821    -3.7896191      0.0011413478 
    967000   0.57663178    -3.7945101     -2.5763665e-05
    968000   0.57696192    -3.7993632      0.0019888939 
    969000   0.56285505    -3.7806115     -0.001201773  
    970000   0.57165781    -3.7931476      0.0017323534 
    971000   0.54135324    -3.7503357     -0.00060422425
    972000   0.56043697    -3.8034621      0.0033224865 
    973000   0.53983679    -3.7782859      0.00089113564
    974000   0.53016116    -3.7695618      0.0014501742 
    975000   0.51598109    -3.7631128     -0.0006380496 
    976000   0.52189938    -3.7698829      0.00029772418
    977000   0.56446852    -3.8251297     -0.00084081194
    978000   0.5524103     -3.7973268     -0.0014528631 
    979000   0.53483283    -3.7699682     -0.00091301272
    980000   0.53491153    -3.7733018     -0.0013798221 
    981000   0.50731621    -3.7525805      0.00029312487
    982000   0.54676061    -3.8034397     -0.0016926389 
    983000   0.56921041    -3.8283289     -0.00086616207
    984000   0.56035059    -3.8431457      0.0018918301 
    985000   0.55291948    -3.847189       0.0018111921 
    986000   0.52522652    -3.8088389      0.00087813942
    987000   0.55351093    -3.8436298     -0.00094699584
    988000   0.56164146    -3.8353121     -0.00069778781
    989000   0.57779058    -3.8747609      0.0032106108 
    990000   0.54744055    -3.8257413      0.00088292861
    991000   0.5511988     -3.8505445      9.5359218e-05
    992000   0.54461928    -3.8344724     -0.00088900724
    993000   0.52515093    -3.8068975      0.00071390799
    994000   0.54317763    -3.857717       0.0024069181 
    995000   0.54713584    -3.8768245      0.002026065  
    996000   0.56332616    -3.9027862      0.00039706054
    997000   0.53644124    -3.877817      -0.00063355883
    998000   0.55141838    -3.8995613      0.00048291742
    999000   0.55921103    -3.9177267      0.00047498913
   1000000   0.51955787    -3.8533939     -0.0012503533 
Loop time of 778.501 on 1 procs for 500000 steps with 512 atoms

Performance: 554912.877 tau/day, 642.260 timesteps/s, 328.837 katom-step/s
99.7% CPU use with 1 MPI tasks x no OpenMP threads

MPI task timing breakdown:
Section |  min time  |  avg time  |  max time  |%varavg| %total
---------------------------------------------------------------
Pair    | 273.05     | 273.05     | 273.05     |   0.0 | 35.07
Neigh   | 5.2928     | 5.2928     | 5.2928     |   0.0 |  0.68
Comm    | 0.85531    | 0.85531    | 0.85531    |   0.0 |  0.11
Output  | 0.020756   | 0.020756   | 0.020756   |   0.0 |  0.00
Modify  | 499.07     | 499.07     | 499.07     |   0.0 | 64.11
Other   |            | 0.2128     |            |       |  0.03

Nlocal:            512 ave         512 max         512 min
Histogram: 1 0 0 0 0 0 0 0 0 0
Nghost:            141 ave         141 max         141 min
Histogram: 1 0 0 0 0 0 0 0 0 0
Neighs:          72388 ave       72388 max       72388 min
Histogram: 1 0 0 0 0 0 0 0 0 0

Total # of neighbors = 72388
Ave neighs/atom = 141.38281
Neighbor list builds = 25000
Dangerous builds not checked
Total wall time: 0:12:58
